! B3LYP 6-31G* OPT

%pal
nprocs 32
end

* xyz 2 1
Fe  -0.01100000  0.01500000  -0.01000000
N  0.50400000  1.64900000  0.97000000
C  1.16100000  1.69700000  2.15400000
C  1.54700000  2.89900000  2.74100000
C  1.25200000  4.10100000  2.08700000
C  0.57300000  4.05800000  0.86800000
C  0.20600000  2.82300000  0.32500000
C  -0.52300000  2.64600000  -0.93300000
C  -1.00600000  3.68800000  -1.73000000
C  -1.69900000  3.39200000  -2.90600000
C  -1.89700000  2.05300000  -3.25800000
C  -1.39500000  1.05400000  -2.42600000
N  -0.71700000  1.33400000  -1.28700000
H  -1.51900000  0.00800000  -2.66200000
H  -2.43000000  1.78400000  -4.16000000
H  -2.07900000  4.19000000  -3.53200000
H  -0.85000000  4.71800000  -1.43800000
H  0.33600000  4.97700000  0.34700000
H  1.54400000  5.05100000  2.51700000
H  2.06900000  2.89200000  3.69000000
H  1.36400000  0.74700000  2.62500000
N  -1.80400000  -0.10800000  0.81300000
C  -2.32500000  0.75700000  1.71700000
C  -3.62400000  0.63100000  2.20500000
C  -4.42400000  -0.42000000  1.74500000
C  -3.89600000  -1.31100000  0.80900000
C  -2.58600000  -1.13600000  0.35300000
C  -1.92500000  -1.99600000  -0.63200000
C  -2.48800000  -3.15000000  -1.18600000
C  -1.76100000  -3.88900000  -2.12100000
C  -0.48100000  -3.45500000  -2.48200000
C  0.03200000  -2.29900000  -1.89600000
N  -0.67000000  -1.57600000  -0.99000000
H  1.01500000  -1.93300000  -2.15200000
H  0.11200000  -4.00100000  -3.20500000
H  -2.18400000  -4.78500000  -2.55800000
H  -3.47700000  -3.47200000  -0.89000000
H  -4.50300000  -2.12600000  0.43600000
H  -5.43800000  -0.54200000  2.10500000
H  -3.99800000  1.34400000  2.92900000
H  -1.67800000  1.55200000  2.05500000
N  0.83800000  -1.22900000  1.28000000
C  0.22500000  -1.84300000  2.32100000
C  0.88300000  -2.76300000  3.13500000
C  2.22200000  -3.07000000  2.86800000
C  2.85800000  -2.44300000  1.79500000
C  2.15000000  -1.52500000  1.01400000
C  2.70700000  -0.80500000  -0.13400000
C  4.04200000  -0.87600000  -0.54400000
C  4.46000000  -0.14800000  -1.65900000
C  3.52700000  0.64100000  -2.34100000
C  2.21100000  0.67700000  -1.88700000
N  1.79600000  -0.03100000  -0.80700000
H  1.46500000  1.27500000  -2.38900000
H  3.81300000  1.22000000  -3.21000000
H  5.49200000  -0.19200000  -1.98700000
H  4.75100000  -1.48500000  0.00100000
H  3.89100000  -2.67300000  1.57000000
H  2.75800000  -3.78300000  3.48100000
H  0.35600000  -3.22800000  3.95800000
H  -0.80800000  -1.58100000  2.49900000
*