! B3LYP 6-31G* Freq

%pal
nprocs 32
end

* xyz 2 1
Fe  -0.004413  0.002948  0.000301
N  0.516850  1.669585  0.971908
C  1.186663  1.746836  2.138862
C  1.562198  2.953502  2.721937
C  1.237305  4.142887  2.070416
C  0.545850  4.077124  0.863170
C  0.195090  2.830797  0.335518
C  -0.545326  2.647572  -0.926351
C  -1.034542  3.699656  -1.706488
C  -1.722383  3.420260  -2.884903
C  -1.904243  2.087919  -3.254349
C  -1.392911  1.089344  -2.430817
N  -0.724105  1.346288  -1.289353
H  -1.514971  0.044698  -2.689355
H  -2.432590  1.818623  -4.162740
H  -2.108341  4.227520  -3.499504
H  -0.886377  4.728059  -1.398599
H  0.286574  4.989434  0.338952
H  1.516002  5.103886  2.491378
H  2.098608  2.951881  3.664887
H  1.423208  0.805117  2.618895
N  -1.823131  -0.125841  0.815010
C  -2.352077  0.702262  1.737416
C  -3.649619  0.570160  2.223138
C  -4.447560  -0.462760  1.732247
C  -3.914053  -1.323809  0.776289
C  -2.600462  -1.136676  0.334981
C  -1.936310  -1.991083  -0.666447
C  -2.524381  -3.119766  -1.245231
C  -1.814476  -3.857269  -2.189677
C  -0.527875  -3.443723  -2.533276
C  -0.000943  -2.313348  -1.915534
N  -0.677389  -1.590809  -1.000926
H  0.995278  -1.965017  -2.159029
H  0.064616  -3.983065  -3.264633
H  -2.258772  -4.736162  -2.646367
H  -3.524407  -3.426391  -0.961795
H  -4.518733  -2.129925  0.377675
H  -5.465696  -0.596705  2.084197
H  -4.019029  1.266453  2.968491
H  -1.706358  1.493817  2.097729
N  0.860316  -1.242245  1.302488
C  0.272589  -1.842864  2.356015
C  0.937745  -2.735150  3.191721
C  2.275359  -3.029491  2.929311
C  2.894397  -2.416809  1.842393
C  2.167600  -1.527690  1.044842
C  2.725995  -0.823081  -0.123843
C  4.058275  -0.924128  -0.536142
C  4.485495  -0.221468  -1.660251
C  3.564150  0.568931  -2.346502
C  2.254165  0.627211  -1.880118
N  1.827728  -0.049147  -0.795220
H  1.513679  1.230919  -2.390442
H  3.847664  1.134280  -3.227899
H  5.517110  -0.290443  -1.991074
H  4.759423  -1.541339  0.013280
H  3.932182  -2.634385  1.618749
H  2.827828  -3.722176  3.556524
H  0.411455  -3.185152  4.026786
H  -0.765926  -1.591051  2.532363
*