 $SYSTEM MEMDDI=400 MWORDS=200 $END
 $CONTRL DFTTYP=B3LYP ICHARG=2 MULT=1 $END
 $ELPOT IEPOT=1 WHERE=PDC $END
 $PDC PTSEL=CONNOLLY CONSTR=NONE $END
 $BASIS GBASIS=N31 NGAUSS=6 NDFUNC=1 $END
 $DATA
Cluster/6-31G(d)
C1
Pb        82.0    -1.785    0.363   -1.461
N          7.0    -1.673    3.073   -0.663
N          7.0    -2.253   -2.364   -2.514
C          6.0    -1.270    3.015    0.751
C          6.0     0.026    2.262    0.981
H          1.0    -2.058    2.506    1.324
H          1.0    -1.163    4.031    1.180
O          8.0    -0.145    0.907    0.557
H          1.0     0.270    2.285    2.057
H          1.0     0.874    2.718    0.442
C          6.0     0.999    0.074    0.742
C          6.0     0.583   -1.363    0.538
H          1.0     1.398    0.195    1.763
H          1.0     1.789    0.359    0.024
O          8.0    -0.032   -1.481   -0.749
H          1.0    -0.129   -1.680    1.321
H          1.0     1.475   -2.009    0.598
C          6.0    -0.088   -2.813   -1.268
C          6.0    -0.850   -2.827   -2.576
H          1.0    -0.534   -3.489   -0.518
H          1.0     0.937   -3.174   -1.463
H          1.0    -0.799   -3.862   -2.970
H          1.0    -0.324   -2.183   -3.294
C          6.0    -3.100   -3.143   -1.594
C          6.0    -3.175   -2.576   -0.176
H          1.0    -2.771   -4.198   -1.522
H          1.0    -4.117   -3.176   -2.010
O          8.0    -3.505   -1.188   -0.141
H          1.0    -2.218   -2.654    0.352
H          1.0    -3.919   -3.151    0.403
C          6.0    -4.834   -0.848   -0.530
C          6.0    -5.088    0.578   -0.107
H          1.0    -5.561   -1.512   -0.033
H          1.0    -4.964   -0.959   -1.623
O          8.0    -4.088    1.417   -0.685
H          1.0    -5.041    0.658    0.994
H          1.0    -6.090    0.898   -0.445
C          6.0    -4.149    2.765   -0.217
C          6.0    -3.046    3.594   -0.842
H          1.0    -4.103    2.768    0.886
H          1.0    -5.117    3.211   -0.505
H          1.0    -3.138    4.620   -0.432
H          1.0    -3.229    3.662   -1.924
C          6.0    -0.724    3.860   -1.490
C          6.0     0.165    3.013   -2.387
H          1.0    -0.090    4.507   -0.858
H          1.0    -1.300    4.534   -2.140
O          8.0    -0.684    2.170   -3.159
H          1.0     0.886    2.398   -1.815
H          1.0     0.749    3.680   -3.045
C          6.0    -0.127    1.623   -4.352
C          6.0    -1.225    0.835   -5.025
H          1.0     0.735    0.973   -4.113
H          1.0     0.222    2.430   -5.020
O          8.0    -1.630   -0.194   -4.123
H          1.0    -0.856    0.392   -5.966
H          1.0    -2.075    1.501   -5.255
C          6.0    -2.866   -0.846   -4.412
C          6.0    -2.798   -2.274   -3.891
H          1.0    -3.695   -0.283   -3.939
H          1.0    -3.057   -0.859   -5.498
H          1.0    -3.811   -2.698   -3.928
H          1.0    -2.188   -2.881   -4.580
 $END
