! B3LYP lanl2dz OPT

%pal
nprocs 16
end

%maxcore 8192

* xyz 2 1
Pb  -1.78500000  0.36300000  -1.46100000
N  -1.67300000  3.07300000  -0.66300000
N  -2.25300000  -2.36400000  -2.51400000
C  -1.27000000  3.01500000  0.75100000
C  0.02600000  2.26200000  0.98100000
H  -2.05800000  2.50600000  1.32400000
H  -1.16300000  4.03100000  1.18000000
O  -0.14500000  0.90700000  0.55700000
H  0.27000000  2.28500000  2.05700000
H  0.87400000  2.71800000  0.44200000
C  0.99900000  0.07400000  0.74200000
C  0.58300000  -1.36300000  0.53800000
H  1.39800000  0.19500000  1.76300000
H  1.78900000  0.35900000  0.02400000
O  -0.03200000  -1.48100000  -0.74900000
H  -0.12900000  -1.68000000  1.32100000
H  1.47500000  -2.00900000  0.59800000
C  -0.08800000  -2.81300000  -1.26800000
C  -0.85000000  -2.82700000  -2.57600000
H  -0.53400000  -3.48900000  -0.51800000
H  0.93700000  -3.17400000  -1.46300000
H  -0.79900000  -3.86200000  -2.97000000
H  -0.32400000  -2.18300000  -3.29400000
C  -3.10000000  -3.14300000  -1.59400000
C  -3.17500000  -2.57600000  -0.17600000
H  -2.77100000  -4.19800000  -1.52200000
H  -4.11700000  -3.17600000  -2.01000000
O  -3.50500000  -1.18800000  -0.14100000
H  -2.21800000  -2.65400000  0.35200000
H  -3.91900000  -3.15100000  0.40300000
C  -4.83400000  -0.84800000  -0.53000000
C  -5.08800000  0.57800000  -0.10700000
H  -5.56100000  -1.51200000  -0.03300000
H  -4.96400000  -0.95900000  -1.62300000
O  -4.08800000  1.41700000  -0.68500000
H  -5.04100000  0.65800000  0.99400000
H  -6.09000000  0.89800000  -0.44500000
C  -4.14900000  2.76500000  -0.21700000
C  -3.04600000  3.59400000  -0.84200000
H  -4.10300000  2.76800000  0.88600000
H  -5.11700000  3.21100000  -0.50500000
H  -3.13800000  4.62000000  -0.43200000
H  -3.22900000  3.66200000  -1.92400000
C  -0.72400000  3.86000000  -1.49000000
C  0.16500000  3.01300000  -2.38700000
H  -0.09000000  4.50700000  -0.85800000
H  -1.30000000  4.53400000  -2.14000000
O  -0.68400000  2.17000000  -3.15900000
H  0.88600000  2.39800000  -1.81500000
H  0.74900000  3.68000000  -3.04500000
C  -0.12700000  1.62300000  -4.35200000
C  -1.22500000  0.83500000  -5.02500000
H  0.73500000  0.97300000  -4.11300000
H  0.22200000  2.43000000  -5.02000000
O  -1.63000000  -0.19400000  -4.12300000
H  -0.85600000  0.39200000  -5.96600000
H  -2.07500000  1.50100000  -5.25500000
C  -2.86600000  -0.84600000  -4.41200000
C  -2.79800000  -2.27400000  -3.89100000
H  -3.69500000  -0.28300000  -3.93900000
H  -3.05700000  -0.85900000  -5.49800000
H  -3.81100000  -2.69800000  -3.92800000
H  -2.18800000  -2.88100000  -4.58000000
*