! B3LYP lanl2dz Freq

%pal
nprocs 16
end

%maxcore 8192

* xyz 2 1
Pb  -1.663425  0.329389  -1.440093
N  -1.412485  3.086385  -0.607268
N  -1.854400  -2.441752  -2.554650
C  -0.999783  3.103691  0.809696
C  0.206118  2.232803  1.091997
H  -1.824765  2.737342  1.419679
H  -0.779318  4.124546  1.149443
O  -0.108510  0.868493  0.777850
H  0.457932  2.311107  2.154019
H  1.086023  2.545226  0.518876
C  0.965965  -0.030959  1.083237
C  0.491051  -1.450427  0.919989
H  1.290354  0.116566  2.118077
H  1.815013  0.171760  0.421611
O  0.006317  -1.636032  -0.417752
H  -0.304007  -1.683317  1.636359
H  1.333027  -2.123472  1.107582
C  -0.120160  -3.016435  -0.783088
C  -0.584730  -3.126819  -2.220735
H  -0.784013  -3.528975  -0.081883
H  0.859445  -3.499792  -0.710185
H  -0.638130  -4.196235  -2.469904
H  0.191580  -2.691423  -2.850874
C  -3.047135  -3.086936  -1.964135
C  -3.411536  -2.617666  -0.561620
H  -2.930304  -4.179415  -1.939017
H  -3.897135  -2.888940  -2.618141
O  -3.583375  -1.192002  -0.476014
H  -2.646876  -2.859475  0.171107
H  -4.333154  -3.113387  -0.246419
C  -4.899484  -0.689093  -0.751400
C  -4.981755  0.701031  -0.178618
H  -5.649014  -1.320415  -0.267421
H  -5.092223  -0.683846  -1.828997
O  -3.917335  1.494454  -0.729521
H  -4.882017  0.670022  0.910591
H  -5.946294  1.150097  -0.433267
C  -3.898744  2.826606  -0.183303
C  -2.778146  3.632439  -0.798922
H  -3.825546  2.760116  0.905829
H  -4.845271  3.320973  -0.421109
H  -2.849042  4.651739  -0.393828
H  -2.949268  3.700575  -1.872512
C  -0.469822  3.847801  -1.473512
C  -0.013297  3.071653  -2.702065
H  0.416613  4.133814  -0.906346
H  -0.943795  4.780054  -1.789232
O  -1.140863  2.380017  -3.247799
H  0.772352  2.346166  -2.453297
H  0.402215  3.765203  -3.438018
C  -1.018870  2.008409  -4.624198
C  -2.197739  1.130096  -4.962997
H  -0.081010  1.465862  -4.786212
H  -1.021809  2.901398  -5.256714
O  -2.169654  0.007274  -4.068516
H  -2.107482  0.788855  -5.997286
H  -3.141086  1.673155  -4.853313
C  -2.814391  -1.196835  -4.510502
C  -1.991998  -2.375617  -4.030758
H  -3.845310  -1.217409  -4.143144
H  -2.854284  -1.218622  -5.602038
H  -2.422685  -3.302146  -4.431762
H  -0.996529  -2.277677  -4.462560
*