! B3LYP lanl2dz OPT

%pal
nprocs 16
end

%maxcore 8192

* xyz 1 1
K  -1.61800000  0.29000000  -1.37300000
N  -1.27800000  2.99700000  -0.49400000
N  -2.29000000  -2.40700000  -2.49800000
C  -0.74200000  2.86600000  0.86500000
C  0.44100000  1.92300000  1.01500000
H  -1.54200000  2.49300000  1.52100000
H  -0.43500000  3.85500000  1.27200000
O  0.05200000  0.58600000  0.75800000
H  0.82700000  2.01400000  2.04900000
H  1.27400000  2.20400000  0.34400000
C  1.12500000  -0.33400000  0.80700000
C  0.60800000  -1.73900000  0.59200000
H  1.63300000  -0.28800000  1.79000000
H  1.87300000  -0.08800000  0.02700000
O  0.01200000  -1.82500000  -0.68900000
H  -0.13000000  -1.99700000  1.37600000
H  1.45700000  -2.44300000  0.68100000
C  -0.29100000  -3.13700000  -1.11900000
C  -0.99600000  -3.09000000  -2.46400000
H  -0.90300000  -3.66300000  -0.36200000
H  0.63900000  -3.72500000  -1.23900000
H  -1.09000000  -4.13900000  -2.82600000
H  -0.32000000  -2.57700000  -3.16700000
C  -3.32200000  -3.02100000  -1.65600000
C  -3.47000000  -2.42200000  -0.25300000
H  -3.16000000  -4.11300000  -1.53500000
H  -4.28900000  -2.92400000  -2.17200000
O  -3.68900000  -1.02600000  -0.21800000
H  -2.56000000  -2.57800000  0.34200000
H  -4.29400000  -2.95400000  0.26200000
C  -4.89300000  -0.53700000  -0.77200000
C  -5.05400000  0.89600000  -0.30900000
H  -5.76000000  -1.12700000  -0.41800000
H  -4.87400000  -0.58100000  -1.87800000
O  -3.94200000  1.66400000  -0.73700000
H  -5.11100000  0.90400000  0.79600000
H  -5.99700000  1.31800000  -0.70700000
C  -3.75500000  2.83900000  0.02600000
C  -2.58800000  3.65600000  -0.50500000
H  -3.61100000  2.56600000  1.09000000
H  -4.65800000  3.47900000  -0.02500000
H  -2.56000000  4.60800000  0.06800000
H  -2.83000000  3.92900000  -1.54200000
C  -0.34500000  3.69300000  -1.38400000
C  -0.59500000  3.46100000  -2.86300000
H  0.67500000  3.34400000  -1.17100000
H  -0.35300000  4.78900000  -1.19600000
O  -0.34400000  2.10400000  -3.18700000
H  0.08000000  4.11900000  -3.44200000
H  -1.62700000  3.74500000  -3.14100000
C  -0.67200000  1.76100000  -4.52500000
C  -2.13400000  1.35100000  -4.66900000
H  -0.00800000  0.92900000  -4.81100000
H  -0.45200000  2.59900000  -5.21300000
O  -2.44400000  0.16400000  -3.96000000
H  -2.39100000  1.24100000  -5.74100000
H  -2.78900000  2.13000000  -4.25100000
C  -2.08400000  -1.04400000  -4.60500000
C  -2.73400000  -2.21200000  -3.88400000
H  -2.45000000  -1.03700000  -5.65000000
H  -0.98300000  -1.15700000  -4.64700000
H  -3.81700000  -2.02100000  -3.87600000
H  -2.57200000  -3.12500000  -4.49700000
*