%Chk=Kcryptand_large_mk.chk
%Mem=3000MB
%NProcShared=2
# B3LYP/6-31G* Integral=(Grid=UltraFine) Pop(MK,ReadRadii)
IOp(6/33=2,6/42=6)
 
CLR
 
1  1
K          -1.618    0.290   -1.373
N          -1.278    2.997   -0.494
N          -2.290   -2.407   -2.498
C          -0.742    2.866    0.865
C           0.441    1.923    1.015
H          -1.542    2.493    1.521
H          -0.435    3.855    1.272
O           0.052    0.586    0.758
H           0.827    2.014    2.049
H           1.274    2.204    0.344
C           1.125   -0.334    0.807
C           0.608   -1.739    0.592
H           1.633   -0.288    1.790
H           1.873   -0.088    0.027
O           0.012   -1.825   -0.689
H          -0.130   -1.997    1.376
H           1.457   -2.443    0.681
C          -0.291   -3.137   -1.119
C          -0.996   -3.090   -2.464
H          -0.903   -3.663   -0.362
H           0.639   -3.725   -1.239
H          -1.090   -4.139   -2.826
H          -0.320   -2.577   -3.167
C          -3.322   -3.021   -1.656
C          -3.470   -2.422   -0.253
H          -3.160   -4.113   -1.535
H          -4.289   -2.924   -2.172
O          -3.689   -1.026   -0.218
H          -2.560   -2.578    0.342
H          -4.294   -2.954    0.262
C          -4.893   -0.537   -0.772
C          -5.054    0.896   -0.309
H          -5.760   -1.127   -0.418
H          -4.874   -0.581   -1.878
O          -3.942    1.664   -0.737
H          -5.111    0.904    0.796
H          -5.997    1.318   -0.707
C          -3.755    2.839    0.026
C          -2.588    3.656   -0.505
H          -3.611    2.566    1.090
H          -4.658    3.479   -0.025
H          -2.560    4.608    0.068
H          -2.830    3.929   -1.542
C          -0.345    3.693   -1.384
C          -0.595    3.461   -2.863
H           0.675    3.344   -1.171
H          -0.353    4.789   -1.196
O          -0.344    2.104   -3.187
H           0.080    4.119   -3.442
H          -1.627    3.745   -3.141
C          -0.672    1.761   -4.525
C          -2.134    1.351   -4.669
H          -0.008    0.929   -4.811
H          -0.452    2.599   -5.213
O          -2.444    0.164   -3.960
H          -2.391    1.241   -5.741
H          -2.789    2.130   -4.251
C          -2.084   -1.044   -4.605
C          -2.734   -2.212   -3.884
H          -2.450   -1.037   -5.650
H          -0.983   -1.157   -4.647
H          -3.817   -2.021   -3.876
H          -2.572   -3.125   -4.497
 
