! B3LYP lanl2dz Freq

%pal
nprocs 16
end

%maxcore 8192

* xyz 1 1
K  -1.736485  0.315760  -1.352847
N  -1.334263  3.179980  -0.408076
N  -2.380960  -2.537038  -2.583719
C  -0.572874  3.061972  0.864849
C  0.634480  2.123259  0.796346
H  -1.244275  2.675664  1.639263
H  -0.213333  4.052420  1.212818
O  0.169923  0.745358  0.636265
H  1.203162  2.209655  1.736967
H  1.307890  2.380721  -0.035984
C  1.263369  -0.220834  0.544502
C  0.683241  -1.624492  0.503047
H  1.917614  -0.130600  1.427163
H  1.859183  -0.028373  -0.362169
O  -0.018710  -1.822042  -0.767705
H  -0.015783  -1.768038  1.342097
H  1.503873  -2.355110  0.591263
C  -0.505218  -3.190777  -0.938657
C  -1.160627  -3.345724  -2.315643
H  -1.190590  -3.443994  -0.117780
H  0.348007  -3.888444  -0.889351
H  -1.369331  -4.426823  -2.458520
H  -0.402179  -3.069267  -3.057065
C  -3.622386  -3.064766  -1.955898
C  -3.865862  -2.653085  -0.489085
H  -3.656446  -4.173954  -1.993451
H  -4.473832  -2.708687  -2.548369
O  -3.855543  -1.211998  -0.259033
H  -3.094130  -3.041428  0.178754
H  -4.832678  -3.076596  -0.167478
C  -5.059971  -0.482477  -0.654148
C  -5.070671  0.831577  0.112575
H  -5.959705  -1.062854  -0.393065
H  -5.060338  -0.291210  -1.738162
O  -3.964503  1.660178  -0.368734
H  -4.948256  0.628108  1.187542
H  -6.025322  1.357564  -0.050502
C  -3.701742  2.819784  0.482755
C  -2.696845  3.745331  -0.207092
H  -3.345501  2.473456  1.465779
H  -4.635842  3.384181  0.639743
H  -2.654671  4.689404  0.375843
H  -3.109894  3.997083  -1.190817
C  -0.591184  3.947324  -1.445661
C  -0.920575  3.523130  -2.877936
H  0.483686  3.798038  -1.304809
H  -0.781360  5.034713  -1.349386
O  -0.354960  2.189038  -3.099866
H  -0.461244  4.235449  -3.582816
H  -2.007597  3.513989  -3.051741
C  -0.358482  1.747391  -4.494822
C  -1.735934  1.242165  -4.947081
H  0.385228  0.944399  -4.541030
H  -0.027299  2.566030  -5.155308
O  -2.187896  0.085931  -4.171727
H  -1.706657  0.992747  -6.020451
H  -2.504046  2.008035  -4.794473
C  -1.665054  -1.206689  -4.625810
C  -2.551341  -2.312967  -4.049998
H  -1.712048  -1.251194  -5.726100
H  -0.614748  -1.323817  -4.317674
H  -3.588118  -2.018435  -4.243653
H  -2.362348  -3.242124  -4.623881
*