 $SYSTEM MEMDDI=400 MWORDS=200 $END
 $CONTRL DFTTYP=B3LYP RUNTYP=OPTIMIZE ICHARG=1 MULT=1 $END
 $STATPT NSTEP=1000 $END
 $BASIS GBASIS=N31 NGAUSS=6 NDFUNC=1 $END
 $DATA
Cluster/6-31G
C1
K         19.0    -1.618    0.290   -1.373
N          7.0    -1.278    2.997   -0.494
N          7.0    -2.290   -2.407   -2.498
C          6.0    -0.742    2.866    0.865
C          6.0     0.441    1.923    1.015
H          1.0    -1.542    2.493    1.521
H          1.0    -0.435    3.855    1.272
O          8.0     0.052    0.586    0.758
H          1.0     0.827    2.014    2.049
H          1.0     1.274    2.204    0.344
C          6.0     1.125   -0.334    0.807
C          6.0     0.608   -1.739    0.592
H          1.0     1.633   -0.288    1.790
H          1.0     1.873   -0.088    0.027
O          8.0     0.012   -1.825   -0.689
H          1.0    -0.130   -1.997    1.376
H          1.0     1.457   -2.443    0.681
C          6.0    -0.291   -3.137   -1.119
C          6.0    -0.996   -3.090   -2.464
H          1.0    -0.903   -3.663   -0.362
H          1.0     0.639   -3.725   -1.239
H          1.0    -1.090   -4.139   -2.826
H          1.0    -0.320   -2.577   -3.167
C          6.0    -3.322   -3.021   -1.656
C          6.0    -3.470   -2.422   -0.253
H          1.0    -3.160   -4.113   -1.535
H          1.0    -4.289   -2.924   -2.172
O          8.0    -3.689   -1.026   -0.218
H          1.0    -2.560   -2.578    0.342
H          1.0    -4.294   -2.954    0.262
C          6.0    -4.893   -0.537   -0.772
C          6.0    -5.054    0.896   -0.309
H          1.0    -5.760   -1.127   -0.418
H          1.0    -4.874   -0.581   -1.878
O          8.0    -3.942    1.664   -0.737
H          1.0    -5.111    0.904    0.796
H          1.0    -5.997    1.318   -0.707
C          6.0    -3.755    2.839    0.026
C          6.0    -2.588    3.656   -0.505
H          1.0    -3.611    2.566    1.090
H          1.0    -4.658    3.479   -0.025
H          1.0    -2.560    4.608    0.068
H          1.0    -2.830    3.929   -1.542
C          6.0    -0.345    3.693   -1.384
C          6.0    -0.595    3.461   -2.863
H          1.0     0.675    3.344   -1.171
H          1.0    -0.353    4.789   -1.196
O          8.0    -0.344    2.104   -3.187
H          1.0     0.080    4.119   -3.442
H          1.0    -1.627    3.745   -3.141
C          6.0    -0.672    1.761   -4.525
C          6.0    -2.134    1.351   -4.669
H          1.0    -0.008    0.929   -4.811
H          1.0    -0.452    2.599   -5.213
O          8.0    -2.444    0.164   -3.960
H          1.0    -2.391    1.241   -5.741
H          1.0    -2.789    2.130   -4.251
C          6.0    -2.084   -1.044   -4.605
C          6.0    -2.734   -2.212   -3.884
H          1.0    -2.450   -1.037   -5.650
H          1.0    -0.983   -1.157   -4.647
H          1.0    -3.817   -2.021   -3.876
H          1.0    -2.572   -3.125   -4.497
 $END
