! B3LYP lanl2dz keepdens

%pal
nprocs 16
end

%maxcore 8192

* xyz 0 1
Fe  -5.813556  -3.840429  -1.541359
H  -5.284290  -1.364379  -2.917879
C  -5.531688  -1.776113  -1.948973
H  -7.787107  -1.779068  -1.952460
H  -3.511093  -2.185487  -1.032548
C  -6.862434  -1.996932  -1.435666
C  -4.588746  -2.212575  -0.946681
C  -6.742313  -2.569518  -0.115912
C  -5.337082  -2.702118  0.186424
H  -7.561501  -2.855192  0.529725
H  -4.918681  -3.106578  1.097918
H  -4.919503  -4.571976  -4.181551
C  -5.335874  -4.977509  -3.269608
H  -7.561042  -4.830272  -3.610615
H  -3.507312  -5.489366  -2.052426
C  -6.740439  -5.113752  -2.965805
C  -4.585113  -5.465070  -2.137262
C  -6.857731  -5.686627  -1.645943
C  -5.525853  -5.904008  -1.133989
H  -7.781217  -5.906926  -1.128057
H  -5.276426  -6.315106  -0.165334
*