! B3LYP lanl2dz OPT

%pal
nprocs 16
end

%maxcore 8192

* xyz 0 1
Fe  -5.81900000  -3.84000000  -1.54100000
H  -5.31900000  -1.44400000  -2.94700000
C  -5.55100000  -1.83000000  -1.96400000
H  -7.79200000  -1.86700000  -1.95300000
H  -3.52800000  -2.25400000  -1.09700000
C  -6.85900000  -2.05600000  -1.43900000
C  -4.60300000  -2.25800000  -0.98500000
C  -6.72100000  -2.62400000  -0.13500000
C  -5.32600000  -2.74700000  0.14600000
H  -7.53000000  -2.94100000  0.50900000
H  -4.89300000  -3.17600000  1.03900000
H  -4.89400000  -4.50400000  -4.12300000
C  -5.32500000  -4.93300000  -3.22900000
H  -7.52900000  -4.74500000  -3.59000000
H  -3.52400000  -5.42100000  -1.98800000
C  -6.71900000  -5.06000000  -2.94700000
C  -4.60000000  -5.41900000  -2.09900000
C  -6.85500000  -5.62700000  -1.64300000
C  -5.54500000  -5.85000000  -1.11900000
H  -7.78600000  -5.81800000  -1.12700000
H  -5.31100000  -6.23500000  -0.13600000
*