 $CONTRL SCFTYP=UHF EXETYP=RUN RUNTYP=ENERGY COORD=UNIQUE $END
 $CONTRL ICHARG=1 MULT=2 $END
 $CONTRL MOLPLT=.TRUE. UNITS=ANGS NPRINT=8 $END
 $SCF    DIRSCF=.TRUE. FDIFF=.FALSE. $END
 $BASIS  GBASIS=N31 NGAUSS=6 NDFUNC=1 $END
 $ELPOT  IEPOT=1 WHERE=PDC OUTPUT=PUNCH $END
 $PDC    PTSEL=CONNOLLY CONSTR=NONE $END
 $GUESS  GUESS=HUCKEL $END
 $DATA
solute
C1
       Car    6      2.458000     -0.698000      0.000000
       Car    6      2.458000      0.698000      0.000000
       Car    6      1.239000      1.406000      0.000000
       Car    6     -0.000000      0.719000      0.000000
       Car    6     -1.239000      1.406000      0.000000
       Car    6     -2.459000      0.698000     -0.000000
       Car    6     -2.458000     -0.698000     -0.000000
       Car    6     -1.239000     -1.406000     -0.000000
       Car    6      0.000000     -0.719000      0.000000
       Car    6      1.239000     -1.406000      0.000000
         H    1      1.247000     -2.492000      0.000000
         H    1     -1.247000     -2.492000     -0.000000
         H    1     -3.395000     -1.243000     -0.000000
         H    1     -3.395000      1.243000     -0.000000
         H    1     -1.247000      2.492000      0.000000
         H    1      1.247000      2.492000      0.000000
         H    1      3.395000      1.243000      0.000000
         H    1      3.395000     -1.243000      0.000000
 $END
